%mem=16000MB
%nprocshared=4
# PBE1PBE Def2SVP EmpiricalDispersion=GD3BJ Opt=(loose, maxcycles=10) NoSymm scrf=(smd,solvent=Water)

 p0_CFH3_conf0_opt_g16

0 1
C   -0.07771396   0.00726558  -0.00421893 
F    1.29095013  -0.11903922   0.07053267 
H   -0.29386489   0.91914531  -0.55885689 
H   -0.46085221  -0.87087727  -0.52189787 
H   -0.45861907   0.06360559   1.01444102 



