%mem=16000MB
%nprocshared=4
# PBE1PBE Def2TZVP EmpiricalDispersion=GD3BJ scrf=(smd,solvent=Water)

 p0_CFH3_sp_g16

0 1
C   -0.05333600   0.00492100  -0.00292600 
F    1.31568900  -0.12126100   0.07187800 
H   -0.31028800   0.92003900  -0.55923700 
H   -0.47722300  -0.86877100  -0.52242300 
H   -0.47494300   0.06517300   1.01270800 



