%mem=16000MB
%nprocshared=4
# PBE1PBE Def2SVP Opt EmpiricalDispersion=GD3BJ NoSymm scrf=(smd,solvent=Water)

 p0_CFH3_opt_g16

0 1
C   -0.05510700   0.00509100  -0.00302600 
F    1.31674500  -0.12137600   0.07193900 
H   -0.30998900   0.92064100  -0.55960100 
H   -0.47701000  -0.86942800  -0.52275900 
H   -0.47474000   0.06517300   1.01344700 



