%mem=16000MB
%nprocshared=4
# PBE1PBE Def2SVP EmpiricalDispersion=GD3BJ NoSymm scrf=(smd,solvent=Water)

 p1_Cl_opt_g16

-1 1
Cl   0.00100000   0.00100000   0.00100000 



