%mem=16000MB
%nprocshared=4
# PBE1PBE Def2SVP EmpiricalDispersion=GD3BJ NoSymm scrf=(smd,solvent=Water)

 r1_F_opt_g16

-1 1
F    0.00100000   0.00100000   0.00100000 



